
%FILE DATA:	Soccer Computational Problem for MiniZinc Models	%
%AUTHOR:	Jack Wall	%
%CONTACT:  	116397063@umail.ucc.ie			%
%LAST UPDATE:	02/24/2020, 18:51:12						%
%DESCRIPTION: 	45 games played with 27 games left				%


n=9; %number of teams

%Games to play
games=[|8,7|7,8|7,2|6,1|3,1|4,3|5,7|2,8|8,9|5,9|4,2|9,3|6,3|7,5|6,8|3,9|4,1|8,6|9,6|9,5|5,2|8,4|6,2|5,1|1,7|9,2|1,8|];

%Initial points
iPoints=[10,10,15,20,9,20,18,15,10];

%POSITION CONSTRAINTS
% [|teamID, operator, position|...]
% operators index:
%  1 for =  operator
%  2 for >  operator
%  3 for >= operator
%  4 for <  operator
%  5 for <= operator
positionConstraints=[|6,3,1|4,4,3|8,3,3|7,4,5|9,1,5|];